CMPL model generation - running

CMPL version: 1.11.0
Authors: Thomas Schleiff, Mike Steglich
Distributed under the GPLv3 

create model instance ...
write model instance ...
CMPL model generation - finished

Solver - running


Welcome to IBM(R) ILOG(R) CPLEX(R) Interactive Optimizer 12.7.1.0
  with Simplex, Mixed Integer & Barrier Optimizers
5725-A06 5725-A29 5724-Y48 5724-Y49 5724-Y54 5724-Y55 5655-Y21
Copyright IBM Corp. 1988, 2017.  All Rights Reserved.

Type 'help' for a list of available commands.
Type 'help' followed by a command name for more
information on commands.

CPLEX> Specified objective sense: MINIMIZE
Selected objective  name:  line[1]
Selected RHS        name:  RHS
Selected bound      name:  BOUND
Problem '/tmp/cmpl.T24952.mps' read.
Read time = 0.05 sec. (8.25 ticks)
CPLEX> CPXPARAM_Read_APIEncoding                        "UTF-8"
Tried aggregator 3 times.
MIP Presolve eliminated 18406 rows and 29050 columns.
MIP Presolve modified 580 coefficients.
Aggregator did 1401 substitutions.
Reduced MIP has 2548 rows, 4142 columns, and 12122 nonzeros.
Reduced MIP has 3974 binaries, 0 generals, 0 SOSs, and 0 indicators.
Presolve time = 0.06 sec. (45.13 ticks)
Found incumbent of value 3750.013614 after 0.13 sec. (90.99 ticks)
Probing time = 0.01 sec. (2.66 ticks)
Tried aggregator 1 time.
MIP Presolve eliminated 0 rows and 41 columns.
Reduced MIP has 2548 rows, 4101 columns, and 12040 nonzeros.
Reduced MIP has 4101 binaries, 0 generals, 0 SOSs, and 0 indicators.
Presolve time = 0.01 sec. (10.95 ticks)
Probing time = 0.01 sec. (2.82 ticks)
Clique table members: 3524.
MIP emphasis: balance optimality and feasibility.
MIP search method: dynamic search.
Parallel mode: none, using 1 thread.
Root relaxation solution time = 0.02 sec. (19.29 ticks)

        Nodes                                         Cuts/
   Node  Left     Objective  IInf  Best Integer    Best Bound    ItCnt     Gap

*     0+    0                         3750.0136        0.0000           100.00%
*     0     0      integral     0     1722.4715     1722.4715     1223    0.00%
Elapsed time = 0.19 sec. (135.02 ticks, tree = 0.00 MB, solutions = 2)

Root node processing (before b&c):
  Real time             =    0.20 sec. (136.30 ticks)
Sequential b&c:
  Real time             =    0.00 sec. (0.00 ticks)
                          ------------
Total (root+branch&cut) =    0.20 sec. (136.30 ticks)

Solution pool: 2 solutions saved.

MIP - Integer optimal solution:  Objective =  1.7224715400e+03
Solution time =    0.20 sec.  Iterations = 1223  Nodes = 0
Deterministic time = 136.40 ticks  (691.33 ticks/sec)

CPLEX> Incumbent solution written to file '/tmp/cmpl.T24952.gsol'.
CPLEX> 
CMPL: Time used for model generation: 1 seconds
CMPL: Time used for solving the model: 0 seconds


Solution written to ASCII file: results/output_generated_conf_1/2016-11-07-4/fair-nonlinear.sol

Solver - finished
